GLPSOL--GLPK LP/MIP Solver 5.0
Parameter(s) specified in the command line:
 --lp ../modeles/2_494.lp --log 2_494.log
Reading problem data from '../modeles/2_494.lp'...
997 rows, 1980 columns, 6922 non-zeros
988 integer variables, all of which are binary
2985 lines were read
GLPK Integer Optimizer 5.0
997 rows, 1980 columns, 6922 non-zeros
988 integer variables, all of which are binary
Preprocessing...
980 constraint coefficient(s) were reduced
997 rows, 1978 columns, 6920 non-zeros
988 integer variables, all of which are binary
Scaling...
 A: min|aij| =  6.556e-05  max|aij| =  4.000e+00  ratio =  6.101e+04
GM: min|aij| =  6.363e-02  max|aij| =  1.572e+01  ratio =  2.470e+02
EQ: min|aij| =  4.049e-03  max|aij| =  1.000e+00  ratio =  2.470e+02
2N: min|aij| =  3.906e-03  max|aij| =  1.763e+00  ratio =  4.514e+02
Constructing initial basis...
Size of triangular part is 997
Solving LP relaxation...
GLPK Simplex Optimizer 5.0
997 rows, 1978 columns, 6920 non-zeros
      0: obj =   4.000000000e+00 inf =   9.500e+00 (5)
     53: obj =   4.786006409e-01 inf =   0.000e+00 (0)
*   200: obj =  -1.414193175e+00 inf =   3.580e-17 (0)
OPTIMAL LP SOLUTION FOUND
Integer optimization begins...
Long-step dual simplex will be used
+   200: mip =     not found yet >=              -inf        (1; 0)
+   201: >>>>>  -1.414193175e+00 >=  -1.414193175e+00 < 0.1% (2; 0)
+   201: mip =  -1.414193175e+00 >=     tree is empty   0.0% (0; 3)
INTEGER OPTIMAL SOLUTION FOUND
Time used:   0.0 secs
Memory used: 2.8 Mb (2940092 bytes)
